TYPE : Vertex Cover
DIMENSION: 20
EDGE_DATA_SECTION:
0 9
0 16
1 6
3 11
3 19
4 5
4 15
4 18
5 9
6 19
7 9
8 16
11 15
12 13
13 17
14 17
16 17
-1
VERTEX_DEGREE:
2.0 1.0 0.0 2.0 3.0 2.0 2.0 1.0 1.0 3.0 0.0 2.0 1.0 2.0 1.0 2.0 3.0 3.0 1.0 2.0
VERTEX_COVER:
3 4 6 9 11 13 16 17
EOF
